0
Node Left Objective IInf Best_Integer Best_Bound ItCnt Gap
0+ 0 nan nan 136.4723 0.0000 nan 100.00%
0+ 0 nan nan 99.1655 0.0000 nan 100.00%
0 0 0.0000 27 99.1655 0.0000 121 100.00%
0 0 0.0000 27 99.1655 Cuts:7 134 100.00%
0 0 0.0000 25 99.1655 Disjcuts:1 136 100.00%
0+ 0 nan nan 97.4969 0.0000 nan 100.00%
0 0 0.0000 26 97.4969 Cuts:17 166 100.00%
0+ 0 nan nan 95.0349 0.0000 nan 100.00%
0+ 0 nan nan 87.3562 0.0000 nan 100.00%
0+ 0 nan nan 76.5679 0.0000 nan 100.00%
0 2 0.0000 24 76.5679 0.0000 166 100.00%
CPXPARAM_MIP_Cuts_Gomory-Disjunctive:Gomory 2
CPXPARAM_MIP_Cuts_Gomory-Disjunctive:Disjunctive 1
1
Node Left Objective IInf Best_Integer Best_Bound ItCnt Gap
0+ 0 nan nan 136.4723 0.0000 nan 100.00%
0+ 0 nan nan 99.1655 0.0000 nan 100.00%
0 0 0.0000 27 99.1655 0.0000 118 100.00%
0+ 0 nan nan 78.3951 0.0000 nan 100.00%
0 0 0.0000 19 78.3951 Fract:2 125 100.00%
0+ 0 nan nan 67.8116 0.0000 nan 100.00%
0 2 0.0000 18 67.8116 0.0000 125 100.00%
CPXPARAM_MIP_Cuts_Gomory-Disjunctive:Gomory 1
CPXPARAM_MIP_Cuts_Gomory-Disjunctive:Disjunctive 0
2
Node Left Objective IInf Best_Integer Best_Bound ItCnt Gap
0+ 0 nan nan 136.4723 0.0000 nan 100.00%
0+ 0 nan nan 69.8576 0.0000 nan 100.00%
0 0 0.0000 23 69.8576 0.0000 119 100.00%
0 0 0.0000 20 69.8576 Fract:2 130 100.00%
0+ 0 nan nan 68.3114 0.0000 nan 100.00%
0 0 0.0000 20 68.3114 Cuts:3 142 100.00%
0 0 0.0000 19 68.3114 Disjcuts:1 148 100.00%
0+ 0 nan nan 63.9986 0.0000 nan 100.00%
0 2 0.0000 19 63.9986 0.0000 148 100.00%
CPXPARAM_MIP_Cuts_Gomory-Disjunctive:Gomory 1
CPXPARAM_MIP_Cuts_Gomory-Disjunctive:Disjunctive 1
3
Node Left Objective IInf Best_Integer Best_Bound ItCnt Gap
0+ 0 nan nan 136.4723 0.0000 nan 100.00%
0 0 0.0000 24 136.4723 0.0000 102 100.00%
0+ 0 nan nan 41.1390 0.0000 nan 100.00%
0+ 0 nan nan 32.1032 0.0000 nan 100.00%
0 2 0.0000 13 32.1032 0.0000 102 100.00%
CPXPARAM_MIP_Cuts_Gomory-Disjunctive:Gomory 0
CPXPARAM_MIP_Cuts_Gomory-Disjunctive:Disjunctive 0
4
Node Left Objective IInf Best_Integer Best_Bound ItCnt Gap
0+ 0 nan nan 115.1924 0.0000 nan 100.00%
0+ 0 nan nan 108.1598 0.0000 nan 100.00%
0+ 0 nan nan 98.2525 0.0000 nan 100.00%
0 0 0.0000 27 98.2525 0.0000 128 100.00%
0 0 0.0000 24 98.2525 Cuts:2 133 100.00%
0+ 0 nan nan 95.3897 0.0000 nan 100.00%
0 0 0.0000 25 95.3897 Cuts:18 150 100.00%
0 0 0.0000 27 95.3897 Cuts:12 165 100.00%
0+ 0 nan nan 85.9050 0.0000 nan 100.00%
0 2 0.0000 25 85.9050 0.0000 165 100.00%
CPXPARAM_MIP_Cuts_Gomory-Disjunctive:Gomory 0
CPXPARAM_MIP_Cuts_Gomory-Disjunctive:Disjunctive 0
5
Node Left Objective IInf Best_Integer Best_Bound ItCnt Gap
0+ 0 nan nan 115.1924 0.0000 nan 100.00%
0+ 0 nan nan 108.1598 0.0000 nan 100.00%
0+ 0 nan nan 79.8300 0.0000 nan 100.00%
0 0 0.0000 27 79.8300 0.0000 120 100.00%
0+ 0 nan nan 74.4608 0.0000 nan 100.00%
0+ 0 nan nan 65.3033 0.0000 nan 100.00%
0+ 0 nan nan 49.2242 0.0000 nan 100.00%
0 2 0.0000 18 49.2242 0.0000 120 100.00%
CPXPARAM_MIP_Cuts_Gomory-Disjunctive:Gomory 0
CPXPARAM_MIP_Cuts_Gomory-Disjunctive:Disjunctive 0
6
Node Left Objective IInf Best_Integer Best_Bound ItCnt Gap
0+ 0 nan nan 115.1924 0.0000 nan 100.00%
0+ 0 nan nan 81.9438 0.0000 nan 100.00%
0 0 0.0000 23 81.9438 0.0000 119 100.00%
0+ 0 nan nan 80.6567 0.0000 nan 100.00%
0+ 0 nan nan 72.5973 0.0000 nan 100.00%
0+ 0 nan nan 64.2641 0.0000 nan 100.00%
0+ 0 nan nan 52.9380 0.0000 nan 100.00%
0 2 0.0000 21 52.9380 0.0000 119 100.00%
CPXPARAM_MIP_Cuts_Gomory-Disjunctive:Gomory 0
CPXPARAM_MIP_Cuts_Gomory-Disjunctive:Disjunctive 0
7
Node Left Objective IInf Best_Integer Best_Bound ItCnt Gap
0+ 0 nan nan 115.1924 0.0000 nan 100.00%
0+ 0 nan nan 81.9438 0.0000 nan 100.00%
0 0 0.0000 23 81.9438 0.0000 110 100.00%
0+ 0 nan nan 71.2025 0.0000 nan 100.00%
0+ 0 nan nan 70.3682 0.0000 nan 100.00%
0+ 0 nan nan 60.6180 0.0000 nan 100.00%
0 2 0.0000 13 60.6180 0.0000 110 100.00%
CPXPARAM_MIP_Cuts_Gomory-Disjunctive:Gomory 0
CPXPARAM_MIP_Cuts_Gomory-Disjunctive:Disjunctive 0
8
Node Left Objective IInf Best_Integer Best_Bound ItCnt Gap
0+ 0 nan nan 131.6037 0.0000 nan 100.00%
0+ 0 nan nan 111.2422 0.0000 nan 100.00%
0 0 0.0000 27 111.2422 0.0000 112 100.00%
0+ 0 nan nan 110.4315 0.0000 nan 100.00%
0+ 0 nan nan 109.7491 0.0000 nan 100.00%
0+ 0 nan nan 93.8366 0.0000 nan 100.00%
0 2 0.0000 25 93.8366 0.0000 112 100.00%
CPXPARAM_MIP_Cuts_Gomory-Disjunctive:Gomory 0
CPXPARAM_MIP_Cuts_Gomory-Disjunctive:Disjunctive 0
9
Node Left Objective IInf Best_Integer Best_Bound ItCnt Gap
0+ 0 nan nan 131.6037 0.0000 nan 100.00%
0+ 0 nan nan 111.2422 0.0000 nan 100.00%
0 0 0.0000 27 111.2422 0.0000 126 100.00%
0+ 0 nan nan 81.5623 0.0000 nan 100.00%
0+ 0 nan nan 81.1793 0.0000 nan 100.00%
0+ 0 nan nan 72.4663 0.0000 nan 100.00%
0+ 0 nan nan 67.1615 0.0000 nan 100.00%
0 2 0.0000 18 67.1615 0.0000 126 100.00%
CPXPARAM_MIP_Cuts_Gomory-Disjunctive:Gomory 0
CPXPARAM_MIP_Cuts_Gomory-Disjunctive:Disjunctive 0
10
Node Left Objective IInf Best_Integer Best_Bound ItCnt Gap
0+ 0 nan nan 131.6037 0.0000 nan 100.00%
0+ 0 nan nan 99.6733 0.0000 nan 100.00%
0 0 0.0000 23 99.6733 0.0000 121 100.00%
0 0 0.0000 21 99.6733 Fract:3 130 100.00%
0+ 0 nan nan 97.3906 0.0000 nan 100.00%
0 0 0.0000 21 97.3906 Cuts:13 152 100.00%
0 0 0.0000 21 97.3906 Fract:9 165 100.00%
0+ 0 nan nan 87.1887 0.0000 nan 100.00%
0+ 0 nan nan 77.8409 0.0000 nan 100.00%
0 2 0.0000 20 77.8409 0.0000 165 100.00%
CPXPARAM_MIP_Cuts_Gomory-Disjunctive:Gomory 1
CPXPARAM_MIP_Cuts_Gomory-Disjunctive:Disjunctive 0
11
Node Left Objective IInf Best_Integer Best_Bound ItCnt Gap
0+ 0 nan nan 131.6037 0.0000 nan 100.00%
0+ 0 nan nan 99.6733 0.0000 nan 100.00%
0 0 0.0000 23 99.6733 0.0000 127 100.00%
0+ 0 nan nan 63.9599 0.0000 nan 100.00%
0+ 0 nan nan 62.6718 0.0000 nan 100.00%
0 2 0.0000 13 62.6718 0.0000 127 100.00%
CPXPARAM_MIP_Cuts_Gomory-Disjunctive:Gomory 0
CPXPARAM_MIP_Cuts_Gomory-Disjunctive:Disjunctive 0
12
Node Left Objective IInf Best_Integer Best_Bound ItCnt Gap
0+ 0 nan nan 110.3567 0.0000 nan 100.00%
0+ 0 nan nan 96.6816 0.0000 nan 100.00%
0 0 0.0000 27 96.6816 0.0000 120 100.00%
0+ 0 nan nan 91.3689 0.0000 nan 100.00%
0+ 0 nan nan 76.0951 0.0000 nan 100.00%
0 2 0.0000 24 76.0951 0.0000 120 100.00%
CPXPARAM_MIP_Cuts_Gomory-Disjunctive:Gomory 0
CPXPARAM_MIP_Cuts_Gomory-Disjunctive:Disjunctive 0
13
Node Left Objective IInf Best_Integer Best_Bound ItCnt Gap
0+ 0 nan nan 110.3567 0.0000 nan 100.00%
0+ 0 nan nan 96.6816 0.0000 nan 100.00%
0 0 0.0000 27 96.6816 0.0000 117 100.00%
0+ 0 nan nan 78.4067 0.0000 nan 100.00%
0 0 0.0000 18 78.4067 Disjcuts:1 126 100.00%
0+ 0 nan nan 77.0292 0.0000 nan 100.00%
0 0 0.0000 20 77.0292 Cuts:10 146 100.00%
0+ 0 nan nan 72.1116 0.0000 nan 100.00%
0 2 0.0000 18 72.1116 0.0000 146 100.00%
CPXPARAM_MIP_Cuts_Gomory-Disjunctive:Gomory 0
CPXPARAM_MIP_Cuts_Gomory-Disjunctive:Disjunctive 0
14
Node Left Objective IInf Best_Integer Best_Bound ItCnt Gap
0+ 0 nan nan 110.3567 0.0000 nan 100.00%
0+ 0 nan nan 82.1268 0.0000 nan 100.00%
0 0 0.0000 23 82.1268 0.0000 114 100.00%
0 0 0.0000 19 82.1268 Fract:2 117 100.00%
0 0 0.0000 20 82.1268 Fract:13 147 100.00%
0 0 0.0000 19 82.1268 Fract:4 164 100.00%
0+ 0 nan nan 81.1255 0.0000 nan 100.00%
0 2 0.0000 19 81.1255 0.0000 164 100.00%
CPXPARAM_MIP_Cuts_Gomory-Disjunctive:Gomory 3
CPXPARAM_MIP_Cuts_Gomory-Disjunctive:Disjunctive 0
15
Node Left Objective IInf Best_Integer Best_Bound ItCnt Gap
0+ 0 nan nan 110.3567 0.0000 nan 100.00%
0+ 0 nan nan 82.1268 0.0000 nan 100.00%
0 0 0.0000 23 82.1268 0.0000 111 100.00%
0+ 0 nan nan 53.3052 0.0000 nan 100.00%
0+ 0 nan nan 50.7826 0.0000 nan 100.00%
0 2 0.0000 13 50.7826 0.0000 111 100.00%
CPXPARAM_MIP_Cuts_Gomory-Disjunctive:Gomory 0
CPXPARAM_MIP_Cuts_Gomory-Disjunctive:Disjunctive 0
16
Node Left Objective IInf Best_Integer Best_Bound ItCnt Gap
0+ 0 nan nan 109.2984 0.0000 nan 100.00%
0+ 0 nan nan 97.6971 0.0000 nan 100.00%
0 0 0.0000 27 97.6971 0.0000 122 100.00%
0+ 0 nan nan 97.4587 0.0000 nan 100.00%
0+ 0 nan nan 96.9730 0.0000 nan 100.00%
0+ 0 nan nan 91.7514 0.0000 nan 100.00%
0+ 0 nan nan 87.2211 0.0000 nan 100.00%
0+ 0 nan nan 84.6796 0.0000 nan 100.00%
0 2 0.0000 24 84.6796 0.0000 122 100.00%
CPXPARAM_MIP_Cuts_Gomory-Disjunctive:Gomory 0
CPXPARAM_MIP_Cuts_Gomory-Disjunctive:Disjunctive 0
17
Node Left Objective IInf Best_Integer Best_Bound ItCnt Gap
0+ 0 nan nan 109.2984 0.0000 nan 100.00%
0+ 0 nan nan 97.6971 0.0000 nan 100.00%
0 0 0.0000 27 97.6971 0.0000 113 100.00%
0+ 0 nan nan 69.1781 0.0000 nan 100.00%
0+ 0 nan nan 66.1806 0.0000 nan 100.00%
0+ 0 nan nan 51.0931 0.0000 nan 100.00%
0 2 0.0000 18 51.0931 0.0000 113 100.00%
CPXPARAM_MIP_Cuts_Gomory-Disjunctive:Gomory 0
CPXPARAM_MIP_Cuts_Gomory-Disjunctive:Disjunctive 0
18
Node Left Objective IInf Best_Integer Best_Bound ItCnt Gap
0+ 0 nan nan 109.2984 0.0000 nan 100.00%
0+ 0 nan nan 86.6088 0.0000 nan 100.00%
0 0 0.0000 23 86.6088 0.0000 119 100.00%
0 0 0.0000 19 86.6088 Fract:2 124 100.00%
0+ 0 nan nan 75.9643 0.0000 nan 100.00%
0 0 0.0000 20 75.9643 Cuts:15 164 100.00%
0 0 0.0000 22 75.9643 Fract:1 183 100.00%
0+ 0 nan nan 74.7669 0.0000 nan 100.00%
0+ 0 nan nan 69.8435 0.0000 nan 100.00%
0 2 0.0000 20 69.8435 0.0000 183 100.00%
CPXPARAM_MIP_Cuts_Gomory-Disjunctive:Gomory 2
CPXPARAM_MIP_Cuts_Gomory-Disjunctive:Disjunctive 0
19
Node Left Objective IInf Best_Integer Best_Bound ItCnt Gap
0+ 0 nan nan 109.2984 0.0000 nan 100.00%
0+ 0 nan nan 86.6088 0.0000 nan 100.00%
0 0 0.0000 25 86.6088 0.0000 112 100.00%
0+ 0 nan nan 58.2160 0.0000 nan 100.00%
0 0 0.0000 14 58.2160 Fract:1 118 100.00%
0+ 0 nan nan 51.4760 0.0000 nan 100.00%
0 0 0.0000 16 51.4760 Cuts:14 150 100.00%
0+ 0 nan nan 38.2539 0.0000 nan 100.00%
0 2 0.0000 14 38.2539 0.0000 150 100.00%
CPXPARAM_MIP_Cuts_Gomory-Disjunctive:Gomory 0
CPXPARAM_MIP_Cuts_Gomory-Disjunctive:Disjunctive 0
20
Node Left Objective IInf Best_Integer Best_Bound ItCnt Gap
0+ 0 nan nan 93.3792 0.0000 nan 100.00%
0+ 0 nan nan 84.6822 0.0000 nan 100.00%
0 0 0.0000 27 84.6822 0.0000 123 100.00%
0+ 0 nan nan 70.9667 0.0000 nan 100.00%
0 0 0.0000 25 70.9667 Cuts:3 130 100.00%
0+ 0 nan nan 69.4584 0.0000 nan 100.00%
0 0 0.0000 25 69.4584 Cuts:2 152 100.00%
0 0 0.0000 24 69.4584 Cuts:8 164 100.00%
0+ 0 nan nan 65.8454 0.0000 nan 100.00%
0+ 0 nan nan 56.1186 0.0000 nan 100.00%
0 2 0.0000 24 56.1186 0.0000 164 100.00%
CPXPARAM_MIP_Cuts_Gomory-Disjunctive:Gomory 3
CPXPARAM_MIP_Cuts_Gomory-Disjunctive:Disjunctive 1
21
Node Left Objective IInf Best_Integer Best_Bound ItCnt Gap
0+ 0 nan nan 93.3792 0.0000 nan 100.00%
0+ 0 nan nan 84.6822 0.0000 nan 100.00%
0 0 0.0000 27 84.6822 0.0000 129 100.00%
0+ 0 nan nan 53.3525 0.0000 nan 100.00%
0+ 0 nan nan 50.5232 0.0000 nan 100.00%
0 2 0.0000 18 50.5232 0.0000 129 100.00%
CPXPARAM_MIP_Cuts_Gomory-Disjunctive:Gomory 0
CPXPARAM_MIP_Cuts_Gomory-Disjunctive:Disjunctive 0
22
Node Left Objective IInf Best_Integer Best_Bound ItCnt Gap
0+ 0 nan nan 93.3792 0.0000 nan 100.00%
0+ 0 nan nan 77.4137 0.0000 nan 100.00%
0 0 0.0000 23 77.4137 0.0000 122 100.00%
0+ 0 nan nan 61.3589 0.0000 nan 100.00%
0 0 0.0000 19 61.3589 Fract:1 126 100.00%
0+ 0 nan nan 58.3501 0.0000 nan 100.00%
0 0 0.0000 21 58.3501 Cuts:13 180 100.00%
0+ 0 nan nan 57.9792 0.0000 nan 100.00%
0 0 0.0000 20 57.9792 Fract:1 193 100.00%
0+ 0 nan nan 57.2521 0.0000 nan 100.00%
0+ 0 nan nan 47.1784 0.0000 nan 100.00%
0 2 0.0000 19 47.1784 0.0000 193 100.00%
CPXPARAM_MIP_Cuts_Gomory-Disjunctive:Gomory 1
CPXPARAM_MIP_Cuts_Gomory-Disjunctive:Disjunctive 0
23
Node Left Objective IInf Best_Integer Best_Bound ItCnt Gap
0+ 0 nan nan 93.3792 0.0000 nan 100.00%
0+ 0 nan nan 77.4137 0.0000 nan 100.00%
0 0 0.0000 23 77.4137 0.0000 112 100.00%
0+ 0 nan nan 50.0593 0.0000 nan 100.00%
0+ 0 nan nan 37.3427 0.0000 nan 100.00%
0 2 0.0000 13 37.3427 0.0000 112 100.00%
CPXPARAM_MIP_Cuts_Gomory-Disjunctive:Gomory 0
CPXPARAM_MIP_Cuts_Gomory-Disjunctive:Disjunctive 0
24
Node Left Objective IInf Best_Integer Best_Bound ItCnt Gap
0+ 0 nan nan 94.5045 0.0000 nan 100.00%
0+ 0 nan nan 83.7373 0.0000 nan 100.00%
0 0 0.0000 27 83.7373 0.0000 126 100.00%
0+ 0 nan nan 81.1267 0.0000 nan 100.00%
0 0 0.0000 24 81.1267 Fract:3 153 100.00%
0+ 0 nan nan 67.4655 0.0000 nan 100.00%
0 0 0.0000 25 67.4655 Cuts:17 192 100.00%
0 0 0.0000 26 67.4655 Fract:5 210 100.00%
0+ 0 nan nan 66.6469 0.0000 nan 100.00%
0+ 0 nan nan 56.6768 0.0000 nan 100.00%
0 2 0.0000 24 56.6768 0.0000 210 100.00%
CPXPARAM_MIP_Cuts_Gomory-Disjunctive:Gomory 3
CPXPARAM_MIP_Cuts_Gomory-Disjunctive:Disjunctive 0
25
Node Left Objective IInf Best_Integer Best_Bound ItCnt Gap
0+ 0 nan nan 94.5045 0.0000 nan 100.00%
0+ 0 nan nan 83.7373 0.0000 nan 100.00%
0 0 0.0000 27 83.7373 0.0000 113 100.00%
0+ 0 nan nan 57.0887 0.0000 nan 100.00%
0+ 0 nan nan 44.4023 0.0000 nan 100.00%
0 2 0.0000 18 44.4023 0.0000 113 100.00%
CPXPARAM_MIP_Cuts_Gomory-Disjunctive:Gomory 0
CPXPARAM_MIP_Cuts_Gomory-Disjunctive:Disjunctive 0
26
Node Left Objective IInf Best_Integer Best_Bound ItCnt Gap
0+ 0 nan nan 94.5045 0.0000 nan 100.00%
0+ 0 nan nan 77.4984 0.0000 nan 100.00%
0 0 0.0000 22 77.4984 0.0000 104 100.00%
0+ 0 nan nan 68.7941 0.0000 nan 100.00%
0+ 0 nan nan 68.7770 0.0000 nan 100.00%
0+ 0 nan nan 58.6833 0.0000 nan 100.00%
0 2 0.0000 19 58.6833 0.0000 104 100.00%
CPXPARAM_MIP_Cuts_Gomory-Disjunctive:Gomory 0
CPXPARAM_MIP_Cuts_Gomory-Disjunctive:Disjunctive 0
27
Node Left Objective IInf Best_Integer Best_Bound ItCnt Gap
0+ 0 nan nan 94.5045 0.0000 nan 100.00%
0 0 0.0000 23 94.5045 0.0000 105 100.00%
0+ 0 nan nan 26.1158 0.0000 nan 100.00%
0 2 0.0000 13 26.1158 0.0000 105 100.00%
CPXPARAM_MIP_Cuts_Gomory-Disjunctive:Gomory 0
CPXPARAM_MIP_Cuts_Gomory-Disjunctive:Disjunctive 0
28
Node Left Objective IInf Best_Integer Best_Bound ItCnt Gap
0+ 0 nan nan 133.7092 0.0000 nan 100.00%
0+ 0 nan nan 129.6212 0.0000 nan 100.00%
0+ 0 nan nan 108.6480 0.0000 nan 100.00%
0 0 0.0000 27 108.6480 0.0000 115 100.00%
0 0 0.0000 25 108.6480 Fract:1 124 100.00%
0 0 0.0000 24 108.6480 Cuts:16 135 100.00%
0+ 0 nan nan 104.3602 0.0000 nan 100.00%
0 0 0.0000 24 104.3602 Fract:17 145 100.00%
0+ 0 nan nan 101.7322 0.0000 nan 100.00%
0+ 0 nan nan 92.1314 0.0000 nan 100.00%
0 2 0.0000 24 92.1314 0.0000 145 100.00%
CPXPARAM_MIP_Cuts_Gomory-Disjunctive:Gomory 2
CPXPARAM_MIP_Cuts_Gomory-Disjunctive:Disjunctive 0
29
Node Left Objective IInf Best_Integer Best_Bound ItCnt Gap
0+ 0 nan nan 133.7092 0.0000 nan 100.00%
0+ 0 nan nan 129.6212 0.0000 nan 100.00%
0 0 0.0000 27 129.6212 0.0000 114 100.00%
0+ 0 nan nan 97.5918 0.0000 nan 100.00%
0 0 0.0000 18 97.5918 Cuts:5 120 100.00%
0+ 0 nan nan 84.6484 0.0000 nan 100.00%
0 0 0.0000 19 84.6484 Cuts:15 163 100.00%
0+ 0 nan nan 81.9701 0.0000 nan 100.00%
0 0 0.0000 18 81.9701 Fract:1 169 100.00%
0 2 0.0000 18 81.9701 0.0000 169 100.00%
CPXPARAM_MIP_Cuts_Gomory-Disjunctive:Gomory 1
CPXPARAM_MIP_Cuts_Gomory-Disjunctive:Disjunctive 0
30
Node Left Objective IInf Best_Integer Best_Bound ItCnt Gap
0+ 0 nan nan 133.7092 0.0000 nan 100.00%
0+ 0 nan nan 114.7297 0.0000 nan 100.00%
0 0 0.0000 22 114.7297 0.0000 117 100.00%
0+ 0 nan nan 105.5743 0.0000 nan 100.00%
0 0 0.0000 20 105.5743 Disjcuts:2 120 100.00%
0+ 0 nan nan 94.2191 0.0000 nan 100.00%
0 0 0.0000 21 94.2191 Cuts:13 155 100.00%
0 0 0.0000 21 94.2191 Cuts:3 181 100.00%
0+ 0 nan nan 83.8364 0.0000 nan 100.00%
0 2 0.0000 20 83.8364 0.0000 181 100.00%
CPXPARAM_MIP_Cuts_Gomory-Disjunctive:Gomory 0
CPXPARAM_MIP_Cuts_Gomory-Disjunctive:Disjunctive 0
31
Node Left Objective IInf Best_Integer Best_Bound ItCnt Gap
0+ 0 nan nan 133.7092 0.0000 nan 100.00%
0+ 0 nan nan 114.7297 0.0000 nan 100.00%
0 0 0.0000 22 114.7297 0.0000 119 100.00%
0+ 0 nan nan 72.7936 0.0000 nan 100.00%
0 0 0.0000 13 72.7936 Cuts:3 127 100.00%
0+ 0 nan nan 72.5981 0.0000 nan 100.00%
0 0 0.0000 16 72.5981 Cuts:11 161 100.00%
0 0 0.0000 14 72.5981 Disjcuts:1 165 100.00%
0+ 0 nan nan 72.4930 0.0000 nan 100.00%
0+ 0 nan nan 62.4392 0.0000 nan 100.00%
0 2 0.0000 14 62.4392 0.0000 165 100.00%
CPXPARAM_MIP_Cuts_Gomory-Disjunctive:Gomory 1
CPXPARAM_MIP_Cuts_Gomory-Disjunctive:Disjunctive 2
32
Node Left Objective IInf Best_Integer Best_Bound ItCnt Gap
0+ 0 nan nan 110.7059 0.0000 nan 100.00%
0+ 0 nan nan 93.8685 0.0000 nan 100.00%
0+ 0 nan nan 88.1652 0.0000 nan 100.00%
0 0 0.0000 27 88.1652 0.0000 130 100.00%
0 0 0.0000 26 88.1652 Cuts:7 144 100.00%
0 0 0.0000 26 88.1652 Cuts:15 167 100.00%
0 0 0.0000 27 88.1652 Cuts:14 193 100.00%
0+ 0 nan nan 79.0607 0.0000 nan 100.00%
0+ 0 nan nan 64.2178 0.0000 nan 100.00%
0 2 0.0000 25 64.2178 0.0000 193 100.00%
CPXPARAM_MIP_Cuts_Gomory-Disjunctive:Gomory 0
CPXPARAM_MIP_Cuts_Gomory-Disjunctive:Disjunctive 1
33
Node Left Objective IInf Best_Integer Best_Bound ItCnt Gap
0+ 0 nan nan 110.7059 0.0000 nan 100.00%
0+ 0 nan nan 93.8685 0.0000 nan 100.00%
0 0 0.0000 27 93.8685 0.0000 120 100.00%
0+ 0 nan nan 67.8253 0.0000 nan 100.00%
0 0 0.0000 20 67.8253 Cuts:7 134 100.00%
0 0 0.0000 18 67.8253 Cuts:17 175 100.00%
0 0 0.0000 19 67.8253 Cuts:13 219 100.00%
0 0 0.0000 19 67.8253 Cuts:5 243 100.00%
0+ 0 nan nan 60.5601 0.0000 nan 100.00%
0 2 0.0000 18 60.5601 0.0000 243 100.00%
CPXPARAM_MIP_Cuts_Gomory-Disjunctive:Gomory 2
CPXPARAM_MIP_Cuts_Gomory-Disjunctive:Disjunctive 0
34
Node Left Objective IInf Best_Integer Best_Bound ItCnt Gap
0+ 0 nan nan 110.7059 0.0000 nan 100.00%
0+ 0 nan nan 74.9711 0.0000 nan 100.00%
0 0 0.0000 23 74.9711 0.0000 119 100.00%
0+ 0 nan nan 70.1819 0.0000 nan 100.00%
0 0 0.0000 19 70.1819 Fract:4 127 100.00%
0+ 0 nan nan 67.4782 0.0000 nan 100.00%
0 0 0.0000 20 67.4782 Cuts:13 163 100.00%
0 0 0.0000 21 67.4782 Cuts:2 171 100.00%
0+ 0 nan nan 66.3885 0.0000 nan 100.00%
0+ 0 nan nan 66.2963 0.0000 nan 100.00%
0 2 0.0000 21 66.2963 0.0000 171 100.00%
CPXPARAM_MIP_Cuts_Gomory-Disjunctive:Gomory 1
CPXPARAM_MIP_Cuts_Gomory-Disjunctive:Disjunctive 1
35
Node Left Objective IInf Best_Integer Best_Bound ItCnt Gap
0+ 0 nan nan 110.7059 0.0000 nan 100.00%
0+ 0 nan nan 74.9711 0.0000 nan 100.00%
0 0 0.0000 24 74.9711 0.0000 114 100.00%
0+ 0 nan nan 57.9339 0.0000 nan 100.00%
0+ 0 nan nan 55.7899 0.0000 nan 100.00%
0+ 0 nan nan 43.3086 0.0000 nan 100.00%
0 2 0.0000 14 43.3086 0.0000 114 100.00%
CPXPARAM_MIP_Cuts_Gomory-Disjunctive:Gomory 0
CPXPARAM_MIP_Cuts_Gomory-Disjunctive:Disjunctive 0
36
Node Left Objective IInf Best_Integer Best_Bound ItCnt Gap
0+ 0 nan nan 123.7135 0.0000 nan 100.00%
0+ 0 nan nan 108.6148 0.0000 nan 100.00%
0 0 0.0000 27 108.6148 0.0000 117 100.00%
0+ 0 nan nan 98.7082 0.0000 nan 100.00%
0 0 0.0000 24 98.7082 Cuts:4 130 100.00%
0+ 0 nan nan 87.0253 0.0000 nan 100.00%
0 0 0.0000 25 87.0253 Cuts:11 164 100.00%
0 0 0.0000 24 87.0253 Cuts:2 172 100.00%
0+ 0 nan nan 82.9955 0.0000 nan 100.00%
0+ 0 nan nan 73.1822 0.0000 nan 100.00%
0 2 0.0000 24 73.1822 0.0000 172 100.00%
CPXPARAM_MIP_Cuts_Gomory-Disjunctive:Gomory 1
CPXPARAM_MIP_Cuts_Gomory-Disjunctive:Disjunctive 3
37
Node Left Objective IInf Best_Integer Best_Bound ItCnt Gap
0+ 0 nan nan 123.7135 0.0000 nan 100.00%
0+ 0 nan nan 108.6148 0.0000 nan 100.00%
0 0 0.0000 27 108.6148 0.0000 118 100.00%
0+ 0 nan nan 74.7826 0.0000 nan 100.00%
0+ 0 nan nan 74.5456 0.0000 nan 100.00%
0+ 0 nan nan 61.3888 0.0000 nan 100.00%
0 2 0.0000 18 61.3888 0.0000 118 100.00%
CPXPARAM_MIP_Cuts_Gomory-Disjunctive:Gomory 0
CPXPARAM_MIP_Cuts_Gomory-Disjunctive:Disjunctive 0
38
Node Left Objective IInf Best_Integer Best_Bound ItCnt Gap
0+ 0 nan nan 123.7135 0.0000 nan 100.00%
0+ 0 nan nan 89.1896 0.0000 nan 100.00%
0 0 0.0000 23 89.1896 0.0000 119 100.00%
0+ 0 nan nan 83.5087 0.0000 nan 100.00%
0+ 0 nan nan 64.2486 0.0000 nan 100.00%
0+ 0 nan nan 60.8203 0.0000 nan 100.00%
0+ 0 nan nan 50.1209 0.0000 nan 100.00%
0 2 0.0000 19 50.1209 0.0000 119 100.00%
CPXPARAM_MIP_Cuts_Gomory-Disjunctive:Gomory 0
CPXPARAM_MIP_Cuts_Gomory-Disjunctive:Disjunctive 0
39
Node Left Objective IInf Best_Integer Best_Bound ItCnt Gap
0+ 0 nan nan 123.7135 0.0000 nan 100.00%
0+ 0 nan nan 89.1896 0.0000 nan 100.00%
0 0 0.0000 24 89.1896 0.0000 117 100.00%
0+ 0 nan nan 50.1463 0.0000 nan 100.00%
0+ 0 nan nan 44.8477 0.0000 nan 100.00%
0 2 0.0000 13 44.8477 0.0000 117 100.00%
CPXPARAM_MIP_Cuts_Gomory-Disjunctive:Gomory 0
CPXPARAM_MIP_Cuts_Gomory-Disjunctive:Disjunctive 0
